step, strain11, strain22, strain12, stress11, stress22, stress12, d1, d2, d4, d5
0, 0, 0, 0, 0, 0, 0, 0, 0, 0, 0, 
1, 0.0001, 0, 0, 33.9689, 2.75807, 0, 0, 0, 0, 0, 
2, 0.0002, 0, 0, 67.9377, 5.51614, 0, 0, 0, 0, 0, 
3, 0.0003, 0, 0, 101.907, 8.27421, 0, 0, 0, 0, 0, 
4, 0.0004, 0, 0, 135.875, 11.0323, 0, 0, 0, 0, 0, 
5, 0.0005, 0, 0, 169.844, 13.7903, 0, 0, 0, 0, 0, 
6, 0.0006, 0, 0, 203.813, 16.5484, 0, 0, 0, 0, 0, 
7, 0.0007, 0, 0, 237.782, 19.3065, 0, 0, 0, 0, 0, 
8, 0.0008, 0, 0, 271.751, 22.0646, 0, 0, 0, 0, 0, 
9, 0.0009, 0, 0, 305.72, 24.8226, 0, 0, 0, 0, 0, 
10, 0.001, 0, 0, 339.689, 27.5807, 0, 0, 0, 0, 0, 
11, 0.0011, 0, 0, 373.658, 30.3388, 0, 0, 0, 0, 0, 
12, 0.0012, 0, 0, 407.626, 33.0968, 0, 0, 0, 0, 0, 
13, 0.0013, 0, 0, 441.595, 35.8549, 0, 0, 0, 0, 0, 
14, 0.0014, 0, 0, 466.484, 37.8757, 0, 0.0191975, 0, 0, 0, 
15, 0.0015, 0, 0, 483.729, 39.2759, 0, 0.052607, 0, 0, 0, 
16, 0.0016, 0, 0, 498.494, 40.4747, 0, 0.0890413, 0, 0, 0, 
17, 0.0017, 0, 0, 511.437, 41.5257, 0, 0.127331, 0, 0, 0, 
18, 0.0018, 0, 0, 522.925, 42.4584, 0, 0.166932, 0, 0, 0, 
19, 0.0019, 0, 0, 533.21, 43.2935, 0, 0.207517, 0, 0, 0, 
20, 0.002, 0, 0, 542.483, 44.0463, 0, 0.248866, 0, 0, 0, 
21, 0.0021, 0, 0, 550.894, 44.7293, 0, 0.290819, 0, 0, 0, 
22, 0.0022, 0, 0, 558.566, 45.3522, 0, 0.333253, 0, 0, 0, 
23, 0.0023, 0, 0, 565.601, 45.9234, 0, 0.376071, 0, 0, 0, 
24, 0.0024, 0, 0, 572.083, 46.4497, 0, 0.419194, 0, 0, 0, 
25, 0.0025, 0, 0, 578.084, 46.9369, 0, 0.462555, 0, 0, 0, 
26, 0.0026, 0, 0, 583.664, 47.3901, 0, 0.506099, 0, 0, 0, 
27, 0.0027, 0, 0, 588.877, 47.8133, 0, 0.549777, 0, 0, 0, 
28, 0.0028, 0, 0, 593.767, 48.2103, 0, 0.593548, 0, 0, 0, 
29, 0.0029, 0, 0, 598.372, 48.5843, 0, 0.637374, 0, 0, 0, 
30, 0.003, 0, 0, 602.727, 48.9378, 0, 0.681224, 0, 0, 0, 
31, 0.0031, 0, 0, 606.861, 49.2735, 0, 0.725069, 0, 0, 0, 
32, 0.0032, 0, 0, 610.798, 49.5932, 0, 0.768883, 0, 0, 0, 
33, 0.0033, 0, 0, 614.563, 49.8988, 0, 0.812643, 0, 0, 0, 
34, 0.0034, 0, 0, 618.173, 50.192, 0, 0.856328, 0, 0, 0, 
35, 0.0035, 0, 0, 621.648, 50.4741, 0, 0.89992, 0, 0, 0, 
36, 0.0036, 0, 0, 625.001, 50.7464, 0, 0.9434, 0, 0, 0, 
37, 0.0037, 0, 0, 628.247, 51.0099, 0, 0.986753, 0, 0, 0, 
38, 0.0038, 0, 0, 631.398, 51.2657, 0, 1.02996, 0, 0, 0, 
39, 0.0039, 0, 0, 634.464, 51.5147, 0, 1.07302, 0, 0, 0, 
40, 0.004, 0, 0, 637.455, 51.7575, 0, 1.11591, 0, 0, 0, 
41, 0.0041, 0, 0, 640.379, 51.9949, 0, 1.15863, 0, 0, 0, 
42, 0.0042, 0, 0, 643.244, 52.2276, 0, 1.20115, 0, 0, 0, 
43, 0.0043, 0, 0, 646.057, 52.456, 0, 1.24348, 0, 0, 0, 
44, 0.0044, 0, 0, 648.824, 52.6806, 0, 1.28561, 0, 0, 0, 
45, 0.0045, 0, 0, 651.55, 52.902, 0, 1.32752, 0, 0, 0, 
46, 0.0046, 0, 0, 654.241, 53.1204, 0, 1.36921, 0, 0, 0, 
47, 0.0047, 0, 0, 656.9, 53.3364, 0, 1.41067, 0, 0, 0, 
48, 0.0048, 0, 0, 659.533, 53.5501, 0, 1.45189, 0, 0, 0, 
49, 0.0049, 0, 0, 662.141, 53.7619, 0, 1.49288, 0, 0, 0, 
50, 0.005, 0, 0, 664.73, 53.9721, 0, 1.53362, 0, 0, 0, 
51, 0.0051, 0, 0, 667.301, 54.1809, 0, 1.57412, 0, 0, 0, 
52, 0.0052, 0, 0, 669.858, 54.3885, 0, 1.61435, 0, 0, 0, 
53, 0.0053, 0, 0, 672.403, 54.5951, 0, 1.65433, 0, 0, 0, 
54, 0.0054, 0, 0, 674.938, 54.8009, 0, 1.69405, 0, 0, 0, 
55, 0.0055, 0, 0, 677.465, 55.0061, 0, 1.7335, 0, 0, 0, 
56, 0.0056, 0, 0, 679.986, 55.2108, 0, 1.77268, 0, 0, 0, 
57, 0.0057, 0, 0, 682.503, 55.4152, 0, 1.81159, 0, 0, 0, 
58, 0.0058, 0, 0, 685.017, 55.6193, 0, 1.85023, 0, 0, 0, 
59, 0.0059, 0, 0, 687.53, 55.8233, 0, 1.88859, 0, 0, 0, 
60, 0.006, 0, 0, 690.042, 56.0273, 0, 1.92667, 0, 0, 0, 
61, 0.0061, 0, 0, 692.556, 56.2314, 0, 1.96447, 0, 0, 0, 
62, 0.0062, 0, 0, 695.072, 56.4357, 0, 2.00198, 0, 0, 0, 
63, 0.0063, 0, 0, 697.591, 56.6402, 0, 2.03921, 0, 0, 0, 
64, 0.0064, 0, 0, 700.114, 56.8451, 0, 2.07616, 0, 0, 0, 
65, 0.0065, 0, 0, 702.642, 57.0503, 0, 2.11282, 0, 0, 0, 
66, 0.0066, 0, 0, 705.176, 57.2561, 0, 2.14919, 0, 0, 0, 
67, 0.0067, 0, 0, 707.715, 57.4623, 0, 2.18528, 0, 0, 0, 
68, 0.0068, 0, 0, 710.262, 57.669, 0, 2.22107, 0, 0, 0, 
69, 0.0069, 0, 0, 712.816, 57.8764, 0, 2.25657, 0, 0, 0, 
70, 0.007, 0, 0, 715.379, 58.0845, 0, 2.29179, 0, 0, 0, 
71, 0.0071, 0, 0, 717.949, 58.2932, 0, 2.32671, 0, 0, 0, 
72, 0.0072, 0, 0, 720.529, 58.5027, 0, 2.36134, 0, 0, 0, 
73, 0.0073, 0, 0, 723.118, 58.7129, 0, 2.39569, 0, 0, 0, 
74, 0.0074, 0, 0, 725.717, 58.9239, 0, 2.42974, 0, 0, 0, 
75, 0.0075, 0, 0, 728.326, 59.1357, 0, 2.4635, 0, 0, 0, 
76, 0.0076, 0, 0, 730.945, 59.3483, 0, 2.49697, 0, 0, 0, 
77, 0.0077, 0, 0, 733.574, 59.5619, 0, 2.53015, 0, 0, 0, 
78, 0.0078, 0, 0, 736.215, 59.7763, 0, 2.56304, 0, 0, 0, 
79, 0.0079, 0, 0, 738.867, 59.9916, 0, 2.59564, 0, 0, 0, 
80, 0.008, 0, 0, 741.53, 60.2078, 0, 2.62795, 0, 0, 0, 
81, 0.0081, 0, 0, 744.205, 60.425, 0, 2.65997, 0, 0, 0, 
82, 0.0082, 0, 0, 746.892, 60.6432, 0, 2.69171, 0, 0, 0, 
83, 0.0083, 0, 0, 749.59, 60.8623, 0, 2.72316, 0, 0, 0, 
84, 0.0084, 0, 0, 752.301, 61.0823, 0, 2.75433, 0, 0, 0, 
85, 0.0085, 0, 0, 755.024, 61.3034, 0, 2.78521, 0, 0, 0, 
86, 0.0086, 0, 0, 757.759, 61.5255, 0, 2.81581, 0, 0, 0, 
87, 0.0087, 0, 0, 760.506, 61.7486, 0, 2.84612, 0, 0, 0, 
88, 0.0088, 0, 0, 763.266, 61.9727, 0, 2.87615, 0, 0, 0, 
89, 0.0089, 0, 0, 766.039, 62.1978, 0, 2.9059, 0, 0, 0, 
90, 0.009, 0, 0, 768.824, 62.4239, 0, 2.93538, 0, 0, 0, 
91, 0.0091, 0, 0, 771.622, 62.6511, 0, 2.96457, 0, 0, 0, 
92, 0.0092, 0, 0, 774.433, 62.8794, 0, 2.99349, 0, 0, 0, 
93, 0.0093, 0, 0, 777.257, 63.1086, 0, 3.02213, 0, 0, 0, 
94, 0.0094, 0, 0, 780.094, 63.339, 0, 3.0505, 0, 0, 0, 
95, 0.0095, 0, 0, 782.944, 63.5703, 0, 3.07859, 0, 0, 0, 
96, 0.0096, 0, 0, 785.806, 63.8028, 0, 3.10641, 0, 0, 0, 
97, 0.0097, 0, 0, 788.682, 64.0363, 0, 3.13397, 0, 0, 0, 
98, 0.0098, 0, 0, 791.571, 64.2708, 0, 3.16125, 0, 0, 0, 
99, 0.0099, 0, 0, 794.473, 64.5064, 0, 3.18827, 0, 0, 0, 
100, 0.01, 0, 0, 797.388, 64.7431, 0, 3.21502, 0, 0, 0, 
