step, strain11, strain22, strain12, stress11, stress22, stress12, d1, d2, d4, d5
0, 0, 0, 0, 0, 0, 0, 0, 0, 0, 0, 
1, -0.0001, 0, 0, -33.9689, -2.75807, 0, 0, 0, 0, 0, 
2, -0.0002, 0, 0, -67.9377, -5.51614, 0, 0, 0, 0, 0, 
3, -0.0003, 0, 0, -101.907, -8.27421, 0, 0, 0, 0, 0, 
4, -0.0004, 0, 0, -135.875, -11.0323, 0, 0, 0, 0, 0, 
5, -0.0005, 0, 0, -169.844, -13.7903, 0, 0, 0, 0, 0, 
6, -0.0006, 0, 0, -203.813, -16.5484, 0, 0, 0, 0, 0, 
7, -0.0007, 0, 0, -237.782, -19.3065, 0, 0, 0, 0, 0, 
8, -0.0008, 0, 0, -271.751, -22.0646, 0, 0, 0, 0, 0, 
9, -0.0009, 0, 0, -305.72, -24.8226, 0, 0, 0, 0, 0, 
10, -0.001, 0, 0, -339.689, -27.5807, 0, 0, 0, 0, 0, 
11, -0.0011, 0, 0, -373.658, -30.3388, 0, 0, 0, 0, 0, 
12, -0.0012, 0, 0, -407.626, -33.0968, 0, 0, 0, 0, 0, 
13, -0.0013, 0, 0, -441.595, -35.8549, 0, 0, 0, 0, 0, 
14, -0.0014, 0, 0, -475.564, -38.613, 0, 0, 0, 0, 0, 
15, -0.0015, 0, 0, -509.533, -41.371, 0, 0, 0, 0, 0, 
16, -0.0016, 0, 0, -543.502, -44.1291, 0, 0, 0, 0, 0, 
17, -0.0017, 0, 0, -577.471, -46.8872, 0, 0, 0, 0, 0, 
18, -0.0018, 0, 0, -611.44, -49.6453, 0, 0, 0, 0, 0, 
19, -0.0019, 0, 0, -645.409, -52.4033, 0, 0, 0, 0, 0, 
20, -0.002, 0, 0, -679.377, -55.1614, 0, 0, 0, 0, 0, 
21, -0.0021, 0, 0, -713.346, -57.9195, 0, 0, 0, 0, 0, 
22, -0.0022, 0, 0, -747.315, -60.6775, 0, 0, 0, 0, 0, 
23, -0.0023, 0, 0, -781.284, -63.4356, 0, 0, 0, 0, 0, 
24, -0.0024, 0, 0, -815.253, -66.1937, 0, 0, 0, 0, 0, 
25, -0.0025, 0, 0, -849.222, -68.9517, 0, 0, 0, 0, 0, 
26, -0.0026, 0, 0, -883.191, -71.7098, 0, 0, 0, 0, 0, 
27, -0.0027, 0, 0, -917.16, -74.4679, 0, 0, 0, 0, 0, 
28, -0.0028, 0, 0, -951.128, -77.2259, 0, 0, 0, 0, 0, 
29, -0.0029, 0, 0, -985.097, -79.984, 0, 0, 0, 0, 0, 
30, -0.003, 0, 0, -1019.07, -82.7421, 0, 0, 0, 0, 0, 
31, -0.0031, 0, 0, -1053.04, -85.5002, 0, 0, 0, 0, 0, 
32, -0.0032, 0, 0, -1087, -88.2582, 0, 0, 0, 0, 0, 
33, -0.0033, 0, 0, -1120.97, -91.0163, 0, 0, 0, 0, 0, 
34, -0.0034, 0, 0, -1154.94, -93.7744, 0, 0, 0, 0, 0, 
35, -0.0035, 0, 0, -1188.91, -96.5324, 0, 0, 0, 0, 0, 
36, -0.0036, 0, 0, -1222.88, -99.2905, 0, 0, 0, 0, 0, 
37, -0.0037, 0, 0, -1256.85, -102.049, 0, 0, 0, 0, 0, 
38, -0.0038, 0, 0, -1290.82, -104.807, 0, 0, 0, 0, 0, 
39, -0.0039, 0, 0, -1324.79, -107.565, 0, 0, 0, 0, 0, 
40, -0.004, 0, 0, -1358.75, -110.323, 0, 0, 0, 0, 0, 
41, -0.0041, 0, 0, -1392.72, -113.081, 0, 0, 0, 0, 0, 
42, -0.0042, 0, 0, -1426.69, -115.839, 0, 0, 0, 0, 0, 
43, -0.0043, 0, 0, -1460.66, -118.597, 0, 0, 0, 0, 0, 
44, -0.0044, 0, 0, -1494.63, -121.355, 0, 0, 0, 0, 0, 
45, -0.0045, 0, 0, -1528.6, -124.113, 0, 0, 0, 0, 0, 
46, -0.0046, 0, 0, -1562.57, -126.871, 0, 0, 0, 0, 0, 
47, -0.0047, 0, 0, -1596.54, -129.629, 0, 0, 0, 0, 0, 
48, -0.0048, 0, 0, -1630.51, -132.387, 0, 0, 0, 0, 0, 
49, -0.0049, 0, 0, -1664.47, -135.145, 0, 0, 0, 0, 0, 
50, -0.005, 0, 0, -1698.44, -137.903, 0, 0, 0, 0, 0, 
51, -0.0051, 0, 0, -1732.41, -140.662, 0, 0, 0, 0, 0, 
52, -0.0052, 0, 0, -1766.38, -143.42, 0, 0, 0, 0, 0, 
53, -0.0053, 0, 0, -1800.35, -146.178, 0, 0, 0, 0, 0, 
54, -0.0054, 0, 0, -1834.32, -148.936, 0, 0, 0, 0, 0, 
55, -0.0055, 0, 0, -1868.29, -151.694, 0, 0, 0, 0, 0, 
56, -0.0056, 0, 0, -1902.26, -154.452, 0, 0, 0, 0, 0, 
57, -0.0057, 0, 0, -1936.23, -157.21, 0, 0, 0, 0, 0, 
58, -0.0058, 0, 0, -1970.19, -159.968, 0, 0, 0, 0, 0, 
59, -0.0059, 0, 0, -2004.16, -162.726, 0, 0, 0, 0, 0, 
60, -0.006, 0, 0, -2038.13, -165.484, 0, 0, 0, 0, 0, 
61, -0.0061, 0, 0, -2072.1, -168.242, 0, 0, 0, 0, 0, 
62, -0.0062, 0, 0, -2106.07, -171, 0, 0, 0, 0, 0, 
63, -0.0063, 0, 0, -2140.04, -173.758, 0, 0, 0, 0, 0, 
64, -0.0064, 0, 0, -2174.01, -176.516, 0, 0, 0, 0, 0, 
65, -0.0065, 0, 0, -2207.98, -179.275, 0, 0, 0, 0, 0, 
66, -0.0066, 0, 0, -2241.95, -182.033, 0, 0, 0, 0, 0, 
67, -0.0067, 0, 0, -2275.91, -184.791, 0, 0, 0, 0, 0, 
68, -0.0068, 0, 0, -2309.88, -187.549, 0, 0, 0, 0, 0, 
69, -0.0069, 0, 0, -2343.85, -190.307, 0, 0, 0, 0, 0, 
70, -0.007, 0, 0, -2377.82, -193.065, 0, 0, 0, 0, 0, 
71, -0.0071, 0, 0, -2411.79, -195.823, 0, 0, 0, 0, 0, 
72, -0.0072, 0, 0, -2445.76, -198.581, 0, 0, 0, 0, 0, 
73, -0.0073, 0, 0, -2479.73, -201.339, 0, 0, 0, 0, 0, 
74, -0.0074, 0, 0, -2513.7, -204.097, 0, 0, 0, 0, 0, 
75, -0.0075, 0, 0, -2547.67, -206.855, 0, 0, 0, 0, 0, 
76, -0.0076, 0, 0, -2581.63, -209.613, 0, 0, 0, 0, 0, 
77, -0.0077, 0, 0, -2615.6, -212.371, 0, 0, 0, 0, 0, 
78, -0.0078, 0, 0, -2649.57, -215.129, 0, 0, 0, 0, 0, 
79, -0.0079, 0, 0, -2683.54, -217.887, 0, 0, 0, 0, 0, 
80, -0.008, 0, 0, -2717.51, -220.646, 0, 0, 0, 0, 0, 
81, -0.0081, 0, 0, -2751.48, -223.404, 0, 0, 0, 0, 0, 
82, -0.0082, 0, 0, -2785.45, -226.162, 0, 0, 0, 0, 0, 
83, -0.0083, 0, 0, -2819.42, -228.92, 0, 0, 0, 0, 0, 
84, -0.0084, 0, 0, -2853.39, -231.678, 0, 0, 0, 0, 0, 
85, -0.0085, 0, 0, -2887.35, -234.436, 0, 0, 0, 0, 0, 
86, -0.0086, 0, 0, -2921.32, -237.194, 0, 0, 0, 0, 0, 
87, -0.0087, 0, 0, -2955.29, -239.952, 0, 0, 0, 0, 0, 
88, -0.0088, 0, 0, -2989.26, -242.71, 0, 0, 0, 0, 0, 
89, -0.0089, 0, 0, -3023.23, -245.468, 0, 0, 0, 0, 0, 
90, -0.009, 0, 0, -3057.2, -248.226, 0, 0, 0, 0, 0, 
91, -0.0091, 0, 0, -3091.17, -250.984, 0, 0, 0, 0, 0, 
92, -0.0092, 0, 0, -3125.14, -253.742, 0, 0, 0, 0, 0, 
93, -0.0093, 0, 0, -3159.11, -256.5, 0, 0, 0, 0, 0, 
94, -0.0094, 0, 0, -3193.07, -259.259, 0, 0, 0, 0, 0, 
95, -0.0095, 0, 0, -3227.04, -262.017, 0, 0, 0, 0, 0, 
96, -0.0096, 0, 0, -3261.01, -264.775, 0, 0, 0, 0, 0, 
97, -0.0097, 0, 0, -3294.98, -267.533, 0, 0, 0, 0, 0, 
98, -0.0098, 0, 0, -3328.95, -270.291, 0, 0, 0, 0, 0, 
99, -0.0099, 0, 0, -3362.92, -273.049, 0, 0, 0, 0, 0, 
100, -0.01, 0, 0, -3396.89, -275.807, 0, 0, 0, 0, 0, 
