step, strain11, strain22, strain12, stress11, stress22, stress12, d1, d2, d4, d5
0, 0, 0, 0, 0, 0, 0, 0, 0, 0, 0, 
1, 0.0001, 0, 0, 33.9689, 2.75807, 0, 0, 0, 0, 0, 
2, 0.0002, 0, 0, 67.9377, 5.51614, 0, 0, 0, 0, 0, 
3, 0.0003, 0, 0, 101.907, 8.27421, 0, 0, 0, 0, 0, 
4, 0.0004, 0, 0, 135.875, 11.0323, 0, 0, 0, 0, 0, 
5, 0.0005, 0, 0, 169.844, 13.7903, 0, 0, 0, 0, 0, 
6, 0.0006, 0, 0, 203.813, 16.5484, 0, 0, 0, 0, 0, 
7, 0.0007, 0, 0, 237.782, 19.3065, 0, 0, 0, 0, 0, 
8, 0.0008, 0, 0, 271.751, 22.0646, 0, 0, 0, 0, 0, 
9, 0.0009, 0, 0, 305.72, 24.8226, 0, 0, 0, 0, 0, 
10, 0.001, 0, 0, 339.689, 27.5807, 0, 0, 0, 0, 0, 
11, 0.0011, 0, 0, 373.658, 30.3388, 0, 0, 0, 0, 0, 
12, 0.0012, 0, 0, 407.626, 33.0968, 0, 0, 0, 0, 0, 
13, 0.0013, 0, 0, 441.595, 35.8549, 0, 0, 0, 0, 0, 
14, 0.0014, 0, 0, 464.709, 37.7316, 0, 0.0191975, 0, 0, 0, 
15, 0.0015, 0, 0, 478.879, 38.8821, 0, 0.052607, 0, 0, 0, 
16, 0.0016, 0, 0, 490.373, 39.8153, 0, 0.0890413, 0, 0, 0, 
17, 0.0017, 0, 0, 500.002, 40.5972, 0, 0.127331, 0, 0, 0, 
18, 0.0018, 0, 0, 508.211, 41.2637, 0, 0.166932, 0, 0, 0, 
19, 0.0019, 0, 0, 515.294, 41.8388, 0, 0.207517, 0, 0, 0, 
20, 0.002, 0, 0, 521.467, 42.34, 0, 0.248866, 0, 0, 0, 
21, 0.0021, 0, 0, 526.895, 42.7808, 0, 0.290819, 0, 0, 0, 
22, 0.0022, 0, 0, 531.707, 43.1715, 0, 0.333253, 0, 0, 0, 
23, 0.0023, 0, 0, 536.006, 43.5205, 0, 0.376071, 0, 0, 0, 
24, 0.0024, 0, 0, 539.876, 43.8347, 0, 0.419194, 0, 0, 0, 
25, 0.0025, 0, 0, 543.385, 44.1196, 0, 0.462555, 0, 0, 0, 
26, 0.0023, 0, 0, 499.914, 40.5901, 0, 0.462555, 0, 0, 0, 
27, 0.0021, 0, 0, 456.444, 37.0605, 0, 0.462555, 0, 0, 0, 
28, 0.0019, 0, 0, 412.973, 33.5309, 0, 0.462555, 0, 0, 0, 
29, 0.0017, 0, 0, 369.502, 30.0014, 0, 0.462555, 0, 0, 0, 
30, 0.0015, 0, 0, 326.031, 26.4718, 0, 0.462555, 0, 0, 0, 
31, 0.0013, 0, 0, 282.56, 22.9422, 0, 0.462555, 0, 0, 0, 
32, 0.0011, 0, 0, 239.09, 19.4126, 0, 0.462555, 0, 0, 0, 
33, 0.0009, 0, 0, 195.619, 15.8831, 0, 0.462555, 0, 0, 0, 
34, 0.0007, 0, 0, 152.148, 12.3535, 0, 0.462555, 0, 0, 0, 
35, 0.0005, 0, 0, 108.677, 8.82393, 0, 0.462555, 0, 0, 0, 
36, 0.0003, 0, 0, 65.2062, 5.29436, 0, 0.462555, 0, 0, 0, 
37, 0.0001, 0, 0, 21.7354, 1.76479, 0, 0.462555, 0, 0, 0, 
38, -0.0001, 0, 0, -33.9689, -2.75807, 0, 0.462555, 0, 0, 0, 
39, -0.0003, 0, 0, -101.907, -8.27421, 0, 0.462555, 0, 0, 0, 
40, -0.0005, 0, 0, -169.844, -13.7903, 0, 0.462555, 0, 0, 0, 
41, -0.0007, 0, 0, -237.782, -19.3065, 0, 0.462555, 0, 0, 0, 
42, -0.0009, 0, 0, -305.72, -24.8226, 0, 0.462555, 0, 0, 0, 
43, -0.0011, 0, 0, -373.658, -30.3388, 0, 0.462555, 0, 0, 0, 
44, -0.0013, 0, 0, -441.595, -35.8549, 0, 0.462555, 0, 0, 0, 
45, -0.0015, 0, 0, -509.533, -41.371, 0, 0.462555, 0, 0, 0, 
46, -0.0017, 0, 0, -577.471, -46.8872, 0, 0.462555, 0, 0, 0, 
47, -0.0019, 0, 0, -645.409, -52.4033, 0, 0.462555, 0, 0, 0, 
48, -0.0021, 0, 0, -713.346, -57.9195, 0, 0.462555, 0, 0, 0, 
49, -0.0023, 0, 0, -781.284, -63.4356, 0, 0.462555, 0, 0, 0, 
50, -0.0025, 0, 0, -849.222, -68.9517, 0, 0.462555, 0, 0, 0, 
51, -0.00225, 0, 0, -764.3, -62.0566, 0, 0.462555, 0, 0, 0, 
52, -0.002, 0, 0, -679.377, -55.1614, 0, 0.462555, 0, 0, 0, 
53, -0.00175, 0, 0, -594.455, -48.2662, 0, 0.462555, 0, 0, 0, 
54, -0.0015, 0, 0, -509.533, -41.371, 0, 0.462555, 0, 0, 0, 
55, -0.00125, 0, 0, -424.611, -34.4759, 0, 0.462555, 0, 0, 0, 
56, -0.001, 0, 0, -339.689, -27.5807, 0, 0.462555, 0, 0, 0, 
57, -0.00075, 0, 0, -254.767, -20.6855, 0, 0.462555, 0, 0, 0, 
58, -0.0005, 0, 0, -169.844, -13.7903, 0, 0.462555, 0, 0, 0, 
59, -0.00025, 0, 0, -84.9222, -6.89517, 0, 0.462555, 0, 0, 0, 
60, 0, 0, 0, 0, 0, 0, 0.462555, 0, 0, 0, 
61, 0.00025, 0, 0, 54.3385, 4.41196, 0, 0.462555, 0, 0, 0, 
62, 0.0005, 0, 0, 108.677, 8.82393, 0, 0.462555, 0, 0, 0, 
63, 0.00075, 0, 0, 163.016, 13.2359, 0, 0.462555, 0, 0, 0, 
64, 0.001, 0, 0, 217.354, 17.6479, 0, 0.462555, 0, 0, 0, 
65, 0.00125, 0, 0, 271.693, 22.0598, 0, 0.462555, 0, 0, 0, 
66, 0.0015, 0, 0, 326.031, 26.4718, 0, 0.462555, 0, 0, 0, 
67, 0.00175, 0, 0, 380.37, 30.8838, 0, 0.462555, 0, 0, 0, 
68, 0.002, 0, 0, 434.708, 35.2957, 0, 0.462555, 0, 0, 0, 
69, 0.00225, 0, 0, 489.047, 39.7077, 0, 0.462555, 0, 0, 0, 
70, 0.0025, 0, 0, 543.385, 44.1196, 0, 0.462555, 0, 0, 0, 
71, 0.00275, 0, 0, 550.927, 44.732, 0, 0.571653, 0, 0, 0, 
72, 0.003, 0, 0, 557.198, 45.2412, 0, 0.681224, 0, 0, 0, 
73, 0.00325, 0, 0, 562.626, 45.6819, 0, 0.790771, 0, 0, 0, 
74, 0.0035, 0, 0, 567.494, 46.0771, 0, 0.89992, 0, 0, 0, 
75, 0.00375, 0, 0, 571.998, 46.4428, 0, 1.00838, 0, 0, 0, 
76, 0.004, 0, 0, 576.271, 46.7898, 0, 1.11591, 0, 0, 0, 
77, 0.00425, 0, 0, 580.41, 47.1258, 0, 1.22234, 0, 0, 0, 
78, 0.0045, 0, 0, 584.48, 47.4563, 0, 1.32752, 0, 0, 0, 
79, 0.00475, 0, 0, 588.53, 47.7852, 0, 1.43131, 0, 0, 0, 
80, 0.005, 0, 0, 592.596, 48.1153, 0, 1.53362, 0, 0, 0, 
81, 0.00525, 0, 0, 596.703, 48.4487, 0, 1.63438, 0, 0, 0, 
82, 0.0055, 0, 0, 600.868, 48.7869, 0, 1.7335, 0, 0, 0, 
83, 0.00575, 0, 0, 605.105, 49.1309, 0, 1.83095, 0, 0, 0, 
84, 0.006, 0, 0, 609.424, 49.4816, 0, 1.92667, 0, 0, 0, 
85, 0.00625, 0, 0, 613.831, 49.8394, 0, 2.02063, 0, 0, 0, 
86, 0.0065, 0, 0, 618.33, 50.2047, 0, 2.11282, 0, 0, 0, 
87, 0.00675, 0, 0, 622.926, 50.5779, 0, 2.20321, 0, 0, 0, 
88, 0.007, 0, 0, 627.619, 50.9589, 0, 2.29179, 0, 0, 0, 
89, 0.00725, 0, 0, 632.412, 51.348, 0, 2.37855, 0, 0, 0, 
90, 0.0075, 0, 0, 637.303, 51.7452, 0, 2.4635, 0, 0, 0, 
91, 0.00775, 0, 0, 642.294, 52.1505, 0, 2.54663, 0, 0, 0, 
92, 0.008, 0, 0, 647.384, 52.5637, 0, 2.62795, 0, 0, 0, 
93, 0.00825, 0, 0, 652.572, 52.985, 0, 2.70747, 0, 0, 0, 
94, 0.0085, 0, 0, 657.857, 53.4141, 0, 2.78521, 0, 0, 0, 
95, 0.00875, 0, 0, 663.239, 53.851, 0, 2.86117, 0, 0, 0, 
96, 0.009, 0, 0, 668.715, 54.2957, 0, 2.93538, 0, 0, 0, 
97, 0.00925, 0, 0, 674.285, 54.7479, 0, 3.00784, 0, 0, 0, 
98, 0.0095, 0, 0, 679.948, 55.2077, 0, 3.07859, 0, 0, 0, 
99, 0.00975, 0, 0, 685.702, 55.6749, 0, 3.14764, 0, 0, 0, 
100, 0.01, 0, 0, 691.545, 56.1494, 0, 3.21502, 0, 0, 0, 
