step, strain11, strain22, strain12, stress11, stress22, stress12, d1, d2, d4, d5
0, 0, 0, 0, 0, 0, 0, 0, 0, 0, 0, 
1, 3e-05, 0, 0, 385.734, 50.3512, 0, 5.15219e-06, 0, 0, 0, 
2, 6e-05, 0, 0, 771.059, 100.649, 0, 0.000305387, 0, 0, 0, 
3, 9e-05, 0, 0, 1155.53, 150.836, 0, 0.000821353, 0, 0, 0, 
4, 0.00012, 0, 0, 1538.91, 200.879, 0, 0.00148299, 0, 0, 0, 
5, 0.00015, 0, 0, 1920.99, 250.754, 0, 0.00226297, 0, 0, 0, 
6, 0.00018, 0, 0, 2301.61, 300.437, 0, 0.00314519, 0, 0, 0, 
7, 0.00021, 0, 0, 2680.61, 349.91, 0, 0.00411867, 0, 0, 0, 
8, 0.00024, 0, 0, 3057.88, 399.155, 0, 0.00517526, 0, 0, 0, 
9, 0.00027, 0, 0, 3433.29, 448.159, 0, 0.00630857, 0, 0, 0, 
10, 0.0003, 0, 0, 3806.73, 496.906, 0, 0.00751344, 0, 0, 0, 
11, 0.00033, 0, 0, 4178.11, 545.384, 0, 0.00878556, 0, 0, 0, 
12, 0.00036, 0, 0, 4547.35, 593.581, 0, 0.0101213, 0, 0, 0, 
13, 0.00039, 0, 0, 4914.36, 641.489, 0, 0.0115173, 0, 0, 0, 
14, 0.00042, 0, 0, 5279.07, 689.095, 0, 0.012971, 0, 0, 0, 
15, 0.00045, 0, 0, 5641.41, 736.393, 0, 0.0144798, 0, 0, 0, 
16, 0.00048, 0, 0, 6001.33, 783.374, 0, 0.0160415, 0, 0, 0, 
17, 0.00051, 0, 0, 6358.75, 830.03, 0, 0.017654, 0, 0, 0, 
18, 0.00054, 0, 0, 6713.64, 876.355, 0, 0.0193155, 0, 0, 0, 
19, 0.00057, 0, 0, 7065.95, 922.342, 0, 0.0210243, 0, 0, 0, 
20, 0.0006, 0, 0, 7415.63, 967.987, 0, 0.0227789, 0, 0, 0, 
21, 0.00063, 0, 0, 7762.64, 1013.28, 0, 0.0245777, 0, 0, 0, 
22, 0.00066, 0, 0, 8106.95, 1058.23, 0, 0.0264195, 0, 0, 0, 
23, 0.00069, 0, 0, 8448.53, 1102.82, 0, 0.0283029, 0, 0, 0, 
24, 0.00072, 0, 0, 8787.35, 1147.04, 0, 0.0302268, 0, 0, 0, 
25, 0.00075, 0, 0, 9123.38, 1190.91, 0, 0.0321901, 0, 0, 0, 
26, 0.00069, 0, 0, 8393.51, 1095.63, 0, 0.0321901, 0, 0, 0, 
27, 0.00063, 0, 0, 7663.64, 1000.36, 0, 0.0321901, 0, 0, 0, 
28, 0.00057, 0, 0, 6933.77, 905.088, 0, 0.0321901, 0, 0, 0, 
29, 0.00051, 0, 0, 6203.9, 809.816, 0, 0.0321901, 0, 0, 0, 
30, 0.00045, 0, 0, 5474.03, 714.543, 0, 0.0321901, 0, 0, 0, 
31, 0.00039, 0, 0, 4744.16, 619.271, 0, 0.0321901, 0, 0, 0, 
32, 0.00033, 0, 0, 4014.29, 523.999, 0, 0.0321901, 0, 0, 0, 
33, 0.00027, 0, 0, 3284.42, 428.726, 0, 0.0321901, 0, 0, 0, 
34, 0.00021, 0, 0, 2554.55, 333.454, 0, 0.0321901, 0, 0, 0, 
35, 0.00015, 0, 0, 1824.68, 238.181, 0, 0.0321901, 0, 0, 0, 
36, 9e-05, 0, 0, 1094.81, 142.909, 0, 0.0321901, 0, 0, 0, 
37, 3e-05, 0, 0, 364.935, 47.6362, 0, 0.0321901, 0, 0, 0, 
38, -3e-05, 0, 0, -385.738, -50.3517, 0, 0.0321901, 0, 0, 0, 
39, -9e-05, 0, 0, -1157.21, -151.055, 0, 0.0321901, 0, 0, 0, 
40, -0.00015, 0, 0, -1928.69, -251.759, 0, 0.0321901, 0, 0, 0, 
41, -0.00021, 0, 0, -2700.17, -352.462, 0, 0.0321901, 0, 0, 0, 
42, -0.00027, 0, 0, -3471.64, -453.165, 0, 0.0321901, 0, 0, 0, 
43, -0.00033, 0, 0, -4243.12, -553.869, 0, 0.0321901, 0, 0, 0, 
44, -0.00039, 0, 0, -5014.59, -654.572, 0, 0.0321901, 0, 0, 0, 
45, -0.00045, 0, 0, -5786.07, -755.276, 0, 0.0321901, 0, 0, 0, 
46, -0.00051, 0, 0, -6557.55, -855.979, 0, 0.0321901, 0, 0, 0, 
47, -0.00057, 0, 0, -7329.02, -956.682, 0, 0.0321901, 0, 0, 0, 
48, -0.00063, 0, 0, -8100.5, -1057.39, 0, 0.0321901, 0, 0, 0, 
49, -0.00069, 0, 0, -8871.97, -1158.09, 0, 0.0321901, 0, 0, 0, 
50, -0.00075, 0, 0, -9643.45, -1258.79, 0, 0.0321901, 0, 0, 0, 
51, -0.000675, 0, 0, -8679.1, -1132.91, 0, 0.0321901, 0, 0, 0, 
52, -0.0006, 0, 0, -7714.76, -1007.03, 0, 0.0321901, 0, 0, 0, 
53, -0.000525, 0, 0, -6750.41, -881.155, 0, 0.0321901, 0, 0, 0, 
54, -0.00045, 0, 0, -5786.07, -755.276, 0, 0.0321901, 0, 0, 0, 
55, -0.000375, 0, 0, -4821.72, -629.396, 0, 0.0321901, 0, 0, 0, 
56, -0.0003, 0, 0, -3857.38, -503.517, 0, 0.0321901, 0, 0, 0, 
57, -0.000225, 0, 0, -2893.03, -377.638, 0, 0.0321901, 0, 0, 0, 
58, -0.00015, 0, 0, -1928.69, -251.759, 0, 0.0321901, 0, 0, 0, 
59, -7.5e-05, 0, 0, -964.345, -125.879, 0, 0.0321901, 0, 0, 0, 
60, 0, 0, 0, 0, 0, 0, 0.0321901, 0, 0, 0, 
61, 7.5e-05, 0, 0, 912.338, 119.091, 0, 0.0321901, 0, 0, 0, 
62, 0.00015, 0, 0, 1824.68, 238.181, 0, 0.0321901, 0, 0, 0, 
63, 0.000225, 0, 0, 2737.01, 357.272, 0, 0.0321901, 0, 0, 0, 
64, 0.0003, 0, 0, 3649.35, 476.362, 0, 0.0321901, 0, 0, 0, 
65, 0.000375, 0, 0, 4561.69, 595.453, 0, 0.0321901, 0, 0, 0, 
66, 0.00045, 0, 0, 5474.03, 714.543, 0, 0.0321901, 0, 0, 0, 
67, 0.000525, 0, 0, 6386.36, 833.634, 0, 0.0321901, 0, 0, 0, 
68, 0.0006, 0, 0, 7298.7, 952.725, 0, 0.0321901, 0, 0, 0, 
69, 0.000675, 0, 0, 8211.04, 1071.82, 0, 0.0321901, 0, 0, 0, 
70, 0.00075, 0, 0, 9123.38, 1190.91, 0, 0.0321901, 0, 0, 0, 
71, 0.000825, 0, 0, 9951.13, 1298.96, 0, 0.0372636, 0, 0, 0, 
72, 0.0009, 0, 0, 10761.1, 1404.68, 0, 0.0425614, 0, 0, 0, 
73, 0.000975, 0, 0, 11553, 1508.06, 0, 0.0480701, 0, 0, 0, 
74, 0.00105, 0, 0, 12326.9, 1609.07, 0, 0.0537776, 0, 0, 0, 
75, 0.001125, 0, 0, 13082.7, 1707.73, 0, 0.0596728, 0, 0, 0, 
76, 0.0012, 0, 0, 13820.4, 1804.03, 0, 0.0657458, 0, 0, 0, 
77, 0.001275, 0, 0, 14540.3, 1897.99, 0, 0.0719872, 0, 0, 0, 
78, 0.00135, 0, 0, 15242.3, 1989.63, 0, 0.0783884, 0, 0, 0, 
79, 0.001425, 0, 0, 15926.8, 2078.99, 0, 0.0849414, 0, 0, 0, 
80, 0.0015, 0, 0, 16594, 2166.07, 0, 0.0916387, 0, 0, 0, 
81, 0.001575, 0, 0, 17244.2, 2250.94, 0, 0.0984732, 0, 0, 0, 
82, 0.00165, 0, 0, 17877.6, 2333.62, 0, 0.105438, 0, 0, 0, 
83, 0.001725, 0, 0, 18494.5, 2414.15, 0, 0.112527, 0, 0, 0, 
84, 0.0018, 0, 0, 19095.4, 2492.59, 0, 0.119734, 0, 0, 0, 
85, 0.001875, 0, 0, 19680.6, 2568.98, 0, 0.127053, 0, 0, 0, 
86, 0.00195, 0, 0, 20250.5, 2643.36, 0, 0.134479, 0, 0, 0, 
87, 0.002025, 0, 0, 20805.3, 2715.79, 0, 0.142006, 0, 0, 0, 
88, 0.0021, 0, 0, 21345.6, 2786.32, 0, 0.149629, 0, 0, 0, 
89, 0.002175, 0, 0, 21871.8, 2855, 0, 0.157344, 0, 0, 0, 
90, 0.00225, 0, 0, 22384.1, 2921.87, 0, 0.165145, 0, 0, 0, 
91, 0.002325, 0, 0, 22883.1, 2987.01, 0, 0.173029, 0, 0, 0, 
92, 0.0024, 0, 0, 23369, 3050.44, 0, 0.18099, 0, 0, 0, 
93, 0.002475, 0, 0, 23842.4, 3112.23, 0, 0.189025, 0, 0, 0, 
94, 0.00255, 0, 0, 24303.6, 3172.43, 0, 0.19713, 0, 0, 0, 
95, 0.002625, 0, 0, 24752.9, 3231.09, 0, 0.2053, 0, 0, 0, 
96, 0.0027, 0, 0, 25190.9, 3288.25, 0, 0.213531, 0, 0, 0, 
97, 0.002775, 0, 0, 25617.7, 3343.97, 0, 0.221821, 0, 0, 0, 
98, 0.00285, 0, 0, 26033.9, 3398.3, 0, 0.230164, 0, 0, 0, 
99, 0.002925, 0, 0, 26439.8, 3451.28, 0, 0.238559, 0, 0, 0, 
100, 0.003, 0, 0, 26835.7, 3502.96, 0, 0.247001, 0, 0, 0, 
