step, strain11, strain22, strain12, stress11, stress22, stress12, d1, d2, d4, d5
0, 0, 0, 0, 0, 0, 0, 0, 0, 0, 0, 
1, 1.5e-05, 1.5e-05, 3e-05, 217.939, 217.939, 99.6521, 0.000416435, 0.000416435, 0, 0, 
2, 3e-05, 3e-05, 6e-05, 435.146, 435.146, 197.209, 0.00185296, 0.00185296, 0, 0, 
3, 4.5e-05, 4.5e-05, 9e-05, 651.195, 651.195, 291.541, 0.00385501, 0.00385501, 0, 0, 
4, 6e-05, 6e-05, 0.00012, 865.804, 865.804, 382.012, 0.00628941, 0.00628941, 0, 0, 
5, 7.5e-05, 7.5e-05, 0.00015, 1078.75, 1078.75, 468.231, 0.00908663, 0.00908663, 0, 0, 
6, 9e-05, 9e-05, 0.00018, 1289.84, 1289.84, 549.969, 0.0122014, 0.0122014, 0, 0, 
7, 0.000105, 0.000105, 0.00021, 1498.94, 1498.94, 627.124, 0.0156011, 0.0156011, 0, 0, 
8, 0.00012, 0.00012, 0.00024, 1705.89, 1705.89, 699.687, 0.0192603, 0.0192603, 0, 0, 
9, 0.000135, 0.000135, 0.00027, 1910.6, 1910.6, 767.718, 0.0231586, 0.0231586, 0, 0, 
10, 0.00015, 0.00015, 0.0003, 2112.97, 2112.97, 831.331, 0.0272789, 0.0272789, 0, 0, 
11, 0.000165, 0.000165, 0.00033, 2312.91, 2312.91, 890.676, 0.0316068, 0.0316068, 0, 0, 
12, 0.00018, 0.00018, 0.00036, 2510.35, 2510.35, 945.934, 0.0361294, 0.0361294, 0, 0, 
13, 0.000195, 0.000195, 0.00039, 2705.25, 2705.25, 997.298, 0.0408356, 0.0408356, 0, 0, 
14, 0.00021, 0.00021, 0.00042, 2897.54, 2897.54, 1044.98, 0.0457154, 0.0457154, 0, 0, 
15, 0.000225, 0.000225, 0.00045, 3087.21, 3087.21, 1089.18, 0.0507595, 0.0507595, 0, 0, 
16, 0.00024, 0.00024, 0.00048, 3274.2, 3274.2, 1130.11, 0.0559597, 0.0559597, 0, 0, 
17, 0.000255, 0.000255, 0.00051, 3458.52, 3458.52, 1167.99, 0.0613083, 0.0613083, 0, 0, 
18, 0.00027, 0.00027, 0.00054, 3640.13, 3640.13, 1203.01, 0.0667983, 0.0667983, 0, 0, 
19, 0.000285, 0.000285, 0.00057, 3819.03, 3819.03, 1235.38, 0.072423, 0.072423, 0, 0, 
20, 0.0003, 0.0003, 0.0006, 3995.23, 3995.23, 1265.26, 0.0781762, 0.0781762, 0, 0, 
21, 0.000315, 0.000315, 0.00063, 4168.72, 4168.72, 1292.85, 0.0840521, 0.0840521, 0, 0, 
22, 0.00033, 0.00033, 0.00066, 4339.5, 4339.5, 1318.31, 0.0900452, 0.0900452, 0, 0, 
23, 0.000345, 0.000345, 0.00069, 4507.61, 4507.61, 1341.8, 0.0961504, 0.0961504, 0, 0, 
24, 0.00036, 0.00036, 0.00072, 4673.04, 4673.04, 1363.45, 0.102363, 0.102363, 0, 0, 
25, 0.000375, 0.000375, 0.00075, 4835.83, 4835.83, 1383.43, 0.108677, 0.108677, 0, 0, 
26, 0.00039, 0.00039, 0.00078, 4995.99, 4995.99, 1401.84, 0.115089, 0.115089, 0, 0, 
27, 0.000405, 0.000405, 0.00081, 5153.55, 5153.55, 1418.81, 0.121595, 0.121595, 0, 0, 
28, 0.00042, 0.00042, 0.00084, 5308.54, 5308.54, 1434.46, 0.128191, 0.128191, 0, 0, 
29, 0.000435, 0.000435, 0.00087, 5460.99, 5460.99, 1448.88, 0.134871, 0.134871, 0, 0, 
30, 0.00045, 0.00045, 0.0009, 5610.94, 5610.94, 1462.17, 0.141633, 0.141633, 0, 0, 
31, 0.000465, 0.000465, 0.00093, 5758.41, 5758.41, 1474.42, 0.148474, 0.148474, 0, 0, 
32, 0.00048, 0.00048, 0.00096, 5903.45, 5903.45, 1485.72, 0.155388, 0.155388, 0, 0, 
33, 0.000495, 0.000495, 0.00099, 6046.1, 6046.1, 1496.13, 0.162373, 0.162373, 0, 0, 
34, 0.00051, 0.00051, 0.00102, 6186.39, 6186.39, 1505.73, 0.169426, 0.169426, 0, 0, 
35, 0.000525, 0.000525, 0.00105, 6324.37, 6324.37, 1514.57, 0.176544, 0.176544, 0, 0, 
36, 0.00054, 0.00054, 0.00108, 6460.07, 6460.07, 1522.74, 0.183722, 0.183722, 0, 0, 
37, 0.000555, 0.000555, 0.00111, 6593.54, 6593.54, 1530.26, 0.190959, 0.190959, 0, 0, 
38, 0.00057, 0.00057, 0.00114, 6724.82, 6724.82, 1537.21, 0.198251, 0.198251, 0, 0, 
39, 0.000585, 0.000585, 0.00117, 6853.96, 6853.96, 1543.62, 0.205596, 0.205596, 0, 0, 
40, 0.0006, 0.0006, 0.0012, 6980.99, 6980.99, 1549.54, 0.21299, 0.21299, 0, 0, 
41, 0.000615, 0.000615, 0.00123, 7105.97, 7105.97, 1555, 0.220431, 0.220431, 0, 0, 
42, 0.00063, 0.00063, 0.00126, 7228.93, 7228.93, 1560.05, 0.227916, 0.227916, 0, 0, 
43, 0.000645, 0.000645, 0.00129, 7349.92, 7349.92, 1564.72, 0.235444, 0.235444, 0, 0, 
44, 0.00066, 0.00066, 0.00132, 7468.98, 7468.98, 1569.04, 0.24301, 0.24301, 0, 0, 
45, 0.000675, 0.000675, 0.00135, 7586.15, 7586.15, 1573.04, 0.250613, 0.250613, 0, 0, 
46, 0.00069, 0.00069, 0.00138, 7701.49, 7701.49, 1576.75, 0.258251, 0.258251, 0, 0, 
47, 0.000705, 0.000705, 0.00141, 7815.03, 7815.03, 1580.19, 0.265921, 0.265921, 0, 0, 
48, 0.00072, 0.00072, 0.00144, 7926.81, 7926.81, 1583.38, 0.273621, 0.273621, 0, 0, 
49, 0.000735, 0.000735, 0.00147, 8036.88, 8036.88, 1586.35, 0.281349, 0.281349, 0, 0, 
50, 0.00075, 0.00075, 0.0015, 8145.28, 8145.28, 1589.12, 0.289102, 0.289102, 0, 0, 
51, 0.000765, 0.000765, 0.00153, 8252.05, 8252.05, 1591.7, 0.296879, 0.296879, 0, 0, 
52, 0.00078, 0.00078, 0.00156, 8357.24, 8357.24, 1594.11, 0.304677, 0.304677, 0, 0, 
53, 0.000795, 0.000795, 0.00159, 8460.87, 8460.87, 1596.37, 0.312495, 0.312495, 0, 0, 
54, 0.00081, 0.00081, 0.00162, 8563, 8563, 1598.48, 0.320331, 0.320331, 0, 0, 
55, 0.000825, 0.000825, 0.00165, 8663.66, 8663.66, 1600.47, 0.328182, 0.328182, 0, 0, 
56, 0.00084, 0.00084, 0.00168, 8762.89, 8762.89, 1602.35, 0.336047, 0.336047, 0, 0, 
57, 0.000855, 0.000855, 0.00171, 8860.73, 8860.73, 1604.13, 0.343923, 0.343923, 0, 0, 
58, 0.00087, 0.00087, 0.00174, 8957.21, 8957.21, 1605.81, 0.351811, 0.351811, 0, 0, 
59, 0.000885, 0.000885, 0.00177, 9052.38, 9052.38, 1607.41, 0.359706, 0.359706, 0, 0, 
60, 0.0009, 0.0009, 0.0018, 9146.26, 9146.26, 1608.95, 0.367609, 0.367609, 0, 0, 
61, 0.000915, 0.000915, 0.00183, 9238.9, 9238.9, 1610.41, 0.375517, 0.375517, 0, 0, 
62, 0.00093, 0.00093, 0.00186, 9330.33, 9330.33, 1611.82, 0.383428, 0.383428, 0, 0, 
63, 0.000945, 0.000945, 0.00189, 9420.58, 9420.58, 1613.19, 0.391342, 0.391342, 0, 0, 
64, 0.00096, 0.00096, 0.00192, 9509.68, 9509.68, 1614.51, 0.399256, 0.399256, 0, 0, 
65, 0.000975, 0.000975, 0.00195, 9597.68, 9597.68, 1615.79, 0.407169, 0.407169, 0, 0, 
66, 0.00099, 0.00099, 0.00198, 9684.6, 9684.6, 1617.04, 0.415079, 0.415079, 0, 0, 
67, 0.001005, 0.001005, 0.00201, 9770.47, 9770.47, 1618.27, 0.422986, 0.422986, 0, 0, 
68, 0.00102, 0.00102, 0.00204, 9855.32, 9855.32, 1619.49, 0.430887, 0.430887, 0, 0, 
69, 0.001035, 0.001035, 0.00207, 9939.19, 9939.19, 1620.68, 0.438782, 0.438782, 0, 0, 
70, 0.00105, 0.00105, 0.0021, 10022.1, 10022.1, 1621.87, 0.446669, 0.446669, 0, 0, 
71, 0.001065, 0.001065, 0.00213, 10104.1, 10104.1, 1623.05, 0.454547, 0.454547, 0, 0, 
72, 0.00108, 0.00108, 0.00216, 10185.2, 10185.2, 1624.22, 0.462414, 0.462414, 0, 0, 
73, 0.001095, 0.001095, 0.00219, 10265.4, 10265.4, 1625.4, 0.470269, 0.470269, 0, 0, 
74, 0.00111, 0.00111, 0.00222, 10344.7, 10344.7, 1626.58, 0.478112, 0.478112, 0, 0, 
75, 0.001125, 0.001125, 0.00225, 10423.3, 10423.3, 1627.77, 0.48594, 0.48594, 0, 0, 
76, 0.00114, 0.00114, 0.00228, 10501, 10501, 1628.97, 0.493754, 0.493754, 0, 0, 
77, 0.001155, 0.001155, 0.00231, 10578, 10578, 1630.18, 0.50155, 0.50155, 0, 0, 
78, 0.00117, 0.00117, 0.00234, 10654.3, 10654.3, 1631.41, 0.50933, 0.50933, 0, 0, 
79, 0.001185, 0.001185, 0.00237, 10729.8, 10729.8, 1632.65, 0.517091, 0.517091, 0, 0, 
80, 0.0012, 0.0012, 0.0024, 10804.6, 10804.6, 1633.92, 0.524832, 0.524832, 0, 0, 
81, 0.001215, 0.001215, 0.00243, 10878.7, 10878.7, 1635.2, 0.532553, 0.532553, 0, 0, 
82, 0.00123, 0.00123, 0.00246, 10952.2, 10952.2, 1636.5, 0.540253, 0.540253, 0, 0, 
83, 0.001245, 0.001245, 0.00249, 11025.1, 11025.1, 1637.83, 0.54793, 0.54793, 0, 0, 
84, 0.00126, 0.00126, 0.00252, 11097.4, 11097.4, 1639.19, 0.555583, 0.555583, 0, 0, 
85, 0.001275, 0.001275, 0.00255, 11169, 11169, 1640.57, 0.563213, 0.563213, 0, 0, 
86, 0.00129, 0.00129, 0.00258, 11240.1, 11240.1, 1641.99, 0.570817, 0.570817, 0, 0, 
87, 0.001305, 0.001305, 0.00261, 11310.7, 11310.7, 1643.43, 0.578395, 0.578395, 0, 0, 
88, 0.00132, 0.00132, 0.00264, 11380.7, 11380.7, 1644.9, 0.585947, 0.585947, 0, 0, 
89, 0.001335, 0.001335, 0.00267, 11450.2, 11450.2, 1646.41, 0.593471, 0.593471, 0, 0, 
90, 0.00135, 0.00135, 0.0027, 11519.2, 11519.2, 1647.94, 0.600966, 0.600966, 0, 0, 
91, 0.001365, 0.001365, 0.00273, 11587.7, 11587.7, 1649.52, 0.608432, 0.608432, 0, 0, 
92, 0.00138, 0.00138, 0.00276, 11655.8, 11655.8, 1651.12, 0.615868, 0.615868, 0, 0, 
93, 0.001395, 0.001395, 0.00279, 11723.4, 11723.4, 1652.76, 0.623274, 0.623274, 0, 0, 
94, 0.00141, 0.00141, 0.00282, 11790.6, 11790.6, 1654.44, 0.630648, 0.630648, 0, 0, 
95, 0.001425, 0.001425, 0.00285, 11857.4, 11857.4, 1656.15, 0.637991, 0.637991, 0, 0, 
96, 0.00144, 0.00144, 0.00288, 11923.8, 11923.8, 1657.9, 0.6453, 0.6453, 0, 0, 
97, 0.001455, 0.001455, 0.00291, 11989.9, 11989.9, 1659.69, 0.652577, 0.652577, 0, 0, 
98, 0.00147, 0.00147, 0.00294, 12055.5, 12055.5, 1661.52, 0.659819, 0.659819, 0, 0, 
99, 0.001485, 0.001485, 0.00297, 12120.8, 12120.8, 1663.38, 0.667028, 0.667028, 0, 0, 
100, 0.0015, 0.0015, 0.003, 12185.8, 12185.8, 1665.29, 0.674201, 0.674201, 0, 0, 
