step, strain11, strain22, strain12, stress11, stress22, stress12, d1, d2, d4, d5
0, 0, 0, 0, 0, 0, 0, 0, 0, 0, 0, 
1, 0, 0.0001, 0, 2.75807, 16.2239, 0, 0, 0, 0, 0, 
2, 0, 0.0002, 0, 5.51614, 32.4479, 0, 0, 0, 0, 0, 
3, 0, 0.0003, 0, 8.27421, 48.6718, 0, 0, 0, 0, 0, 
4, 0, 0.0004, 0, 11.0323, 64.8958, 0, 0, 0, 0, 0, 
5, 0, 0.0005, 0, 13.7903, 81.1197, 0, 0, 0, 0, 0, 
6, 0, 0.0006, 0, 16.5484, 97.3436, 0, 0, 0, 0, 0, 
7, 0, 0.0007, 0, 19.3065, 113.568, 0, 0, 0, 0, 0, 
8, 0, 0.0008, 0, 22.0391, 129.642, 0, 0, 0.00113895, 0, 0, 
9, 0, 0.0009, 0, 24.6685, 145.109, 0, 0, 0.0061602, 0, 0, 
10, 0, 0.001, 0, 27.1306, 159.592, 0, 0, 0.0163626, 0, 0, 
11, 0, 0.0011, 0, 29.3705, 172.768, 0, 0, 0.032513, 0, 0, 
12, 0, 0.0012, 0, 31.3472, 184.395, 0, 0, 0.0550452, 0, 0, 
13, 0, 0.0013, 0, 33.0374, 194.338, 0, 0, 0.0841054, 0, 0, 
14, 0, 0.0014, 0, 34.4376, 202.574, 0, 0, 0.119571, 0, 0, 
15, 0, 0.0015, 0, 35.5629, 209.194, 0, 0, 0.161064, 0, 0, 
16, 0, 0.0016, 0, 36.4436, 214.374, 0, 0, 0.207977, 0, 0, 
17, 0, 0.0017, 0, 37.1198, 218.352, 0, 0, 0.259498, 0, 0, 
18, 0, 0.0018, 0, 37.637, 221.394, 0, 0, 0.31465, 0, 0, 
19, 0, 0.0019, 0, 38.0409, 223.77, 0, 0, 0.372339, 0, 0, 
20, 0, 0.002, 0, 38.3746, 225.733, 0, 0, 0.431408, 0, 0, 
21, 0, 0.0021, 0, 38.676, 227.506, 0, 0, 0.490686, 0, 0, 
22, 0, 0.0022, 0, 38.9775, 229.28, 0, 0, 0.549047, 0, 0, 
23, 0, 0.0023, 0, 39.3051, 231.206, 0, 0, 0.605454, 0, 0, 
24, 0, 0.0024, 0, 39.679, 233.406, 0, 0, 0.659004, 0, 0, 
25, 0, 0.0025, 0, 40.1143, 235.966, 0, 0, 0.708959, 0, 0, 
26, 0, 0.0026, 0, 40.6213, 238.949, 0, 0, 0.754763, 0, 0, 
27, 0, 0.0027, 0, 41.2064, 242.391, 0, 0, 0.79605, 0, 0, 
28, 0, 0.0028, 0, 41.8729, 246.311, 0, 0, 0.832641, 0, 0, 
29, 0, 0.0029, 0, 42.6211, 250.713, 0, 0, 0.864528, 0, 0, 
30, 0, 0.003, 0, 43.4493, 255.584, 0, 0, 0.891855, 0, 0, 
31, 0, 0.0031, 0, 44.3538, 260.904, 0, 0, 0.914882, 0, 0, 
32, 0, 0.0032, 0, 45.3295, 266.644, 0, 0, 0.933964, 0, 0, 
33, 0, 0.0033, 0, 46.3706, 272.768, 0, 0, 0.949513, 0, 0, 
34, 0, 0.0034, 0, 47.4703, 279.237, 0, 0, 0.96197, 0, 0, 
35, 0, 0.0035, 0, 48.6216, 286.009, 0, 0, 0.971782, 0, 0, 
36, 0, 0.0036, 0, 49.8174, 293.044, 0, 0, 0.979381, 0, 0, 
37, 0, 0.0037, 0, 51.051, 300.3, 0, 0, 0.985166, 0, 0, 
38, 0, 0.0038, 0, 52.3159, 307.74, 0, 0, 0.989494, 0, 0, 
39, 0, 0.0039, 0, 53.6062, 315.331, 0, 0, 0.992678, 0, 0, 
40, 0, 0.004, 0, 54.9169, 323.041, 0, 0, 0.994978, 0, 0, 
41, 0, 0.0041, 0, 56.2434, 330.844, 0, 0, 0.996612, 0, 0, 
42, 0, 0.0042, 0, 57.5821, 338.718, 0, 0, 0.997751, 0, 0, 
43, 0, 0.0043, 0, 58.9299, 346.647, 0, 0, 0.998533, 0, 0, 
44, 0, 0.0044, 0, 60.2844, 354.614, 0, 0, 0.999058, 0, 0, 
45, 0, 0.0045, 0, 61.6437, 362.61, 0, 0, 0.999406, 0, 0, 
46, 0, 0.0046, 0, 63.0064, 370.626, 0, 0, 0.999632, 0, 0, 
47, 0, 0.0047, 0, 64.3715, 378.656, 0, 0, 0.999776, 0, 0, 
48, 0, 0.0048, 0, 65.7381, 386.695, 0, 0, 0.999866, 0, 0, 
49, 0, 0.0049, 0, 67.1058, 394.74, 0, 0, 0.999921, 0, 0, 
50, 0, 0.005, 0, 68.4741, 402.789, 0, 0, 0.999954, 0, 0, 
51, 0, 0.0051, 0, 69.8429, 410.841, 0, 0, 0.999974, 0, 0, 
52, 0, 0.0052, 0, 71.212, 418.894, 0, 0, 0.999986, 0, 0, 
53, 0, 0.0053, 0, 72.5812, 426.948, 0, 0, 0.999992, 0, 0, 
54, 0, 0.0054, 0, 73.9505, 435.003, 0, 0, 0.999996, 0, 0, 
55, 0, 0.0055, 0, 75.3199, 443.058, 0, 0, 0.999998, 0, 0, 
56, 0, 0.0056, 0, 76.6893, 451.114, 0, 0, 0.999999, 0, 0, 
57, 0, 0.0057, 0, 78.0587, 459.169, 0, 0, 0.999999, 0, 0, 
58, 0, 0.0058, 0, 79.4282, 467.225, 0, 0, 1, 0, 0, 
59, 0, 0.0059, 0, 80.7976, 475.28, 0, 0, 1, 0, 0, 
60, 0, 0.006, 0, 82.1671, 483.336, 0, 0, 1, 0, 0, 
61, 0, 0.0061, 0, 83.5365, 491.391, 0, 0, 1, 0, 0, 
62, 0, 0.0062, 0, 84.906, 499.447, 0, 0, 1, 0, 0, 
63, 0, 0.0063, 0, 86.2754, 507.503, 0, 0, 1, 0, 0, 
64, 0, 0.0064, 0, 87.6449, 515.558, 0, 0, 1, 0, 0, 
65, 0, 0.0065, 0, 89.0143, 523.614, 0, 0, 1, 0, 0, 
66, 0, 0.0066, 0, 90.3838, 531.669, 0, 0, 1, 0, 0, 
67, 0, 0.0067, 0, 91.7532, 539.725, 0, 0, 1, 0, 0, 
68, 0, 0.0068, 0, 93.1227, 547.781, 0, 0, 1, 0, 0, 
69, 0, 0.0069, 0, 94.4921, 555.836, 0, 0, 1, 0, 0, 
70, 0, 0.007, 0, 95.8616, 563.892, 0, 0, 1, 0, 0, 
71, 0, 0.0071, 0, 97.231, 571.947, 0, 0, 1, 0, 0, 
72, 0, 0.0072, 0, 98.6005, 580.003, 0, 0, 1, 0, 0, 
73, 0, 0.0073, 0, 99.9699, 588.058, 0, 0, 1, 0, 0, 
74, 0, 0.0074, 0, 101.339, 596.114, 0, 0, 1, 0, 0, 
75, 0, 0.0075, 0, 102.709, 604.17, 0, 0, 1, 0, 0, 
76, 0, 0.0076, 0, 104.078, 612.225, 0, 0, 1, 0, 0, 
77, 0, 0.0077, 0, 105.448, 620.281, 0, 0, 1, 0, 0, 
78, 0, 0.0078, 0, 106.817, 628.336, 0, 0, 1, 0, 0, 
79, 0, 0.0079, 0, 108.187, 636.392, 0, 0, 1, 0, 0, 
80, 0, 0.008, 0, 109.556, 644.448, 0, 0, 1, 0, 0, 
81, 0, 0.0081, 0, 110.926, 652.503, 0, 0, 1, 0, 0, 
82, 0, 0.0082, 0, 112.295, 660.559, 0, 0, 1, 0, 0, 
83, 0, 0.0083, 0, 113.664, 668.614, 0, 0, 1, 0, 0, 
84, 0, 0.0084, 0, 115.034, 676.67, 0, 0, 1, 0, 0, 
85, 0, 0.0085, 0, 116.403, 684.726, 0, 0, 1, 0, 0, 
86, 0, 0.0086, 0, 117.773, 692.781, 0, 0, 1, 0, 0, 
87, 0, 0.0087, 0, 119.142, 700.837, 0, 0, 1, 0, 0, 
88, 0, 0.0088, 0, 120.512, 708.892, 0, 0, 1, 0, 0, 
89, 0, 0.0089, 0, 121.881, 716.948, 0, 0, 1, 0, 0, 
90, 0, 0.009, 0, 123.251, 725.004, 0, 0, 1, 0, 0, 
91, 0, 0.0091, 0, 124.62, 733.059, 0, 0, 1, 0, 0, 
92, 0, 0.0092, 0, 125.99, 741.115, 0, 0, 1, 0, 0, 
93, 0, 0.0093, 0, 127.359, 749.17, 0, 0, 1, 0, 0, 
94, 0, 0.0094, 0, 128.728, 757.226, 0, 0, 1, 0, 0, 
95, 0, 0.0095, 0, 130.098, 765.282, 0, 0, 1, 0, 0, 
96, 0, 0.0096, 0, 131.467, 773.337, 0, 0, 1, 0, 0, 
97, 0, 0.0097, 0, 132.837, 781.393, 0, 0, 1, 0, 0, 
98, 0, 0.0098, 0, 134.206, 789.448, 0, 0, 1, 0, 0, 
99, 0, 0.0099, 0, 135.576, 797.504, 0, 0, 1, 0, 0, 
100, 0, 0.01, 0, 136.945, 805.56, 0, 0, 1, 0, 0, 
