step, strain11, strain22, strain12, stress11, stress22, stress12, d1, d2, d4, d5
0, 0, 0, 0, 0, 0, 0, 0, 0, 0, 0, 
1, 5e-05, 5e-05, 0.0001, 18.3635, 9.491, 9.536, 0, 0, 0, 0, 
2, 0.0001, 0.0001, 0.0002, 36.7269, 18.982, 19.072, 0, 0, 0, 0, 
3, 0.00015, 0.00015, 0.0003, 55.0904, 28.473, 28.608, 0, 0, 0, 0, 
4, 0.0002, 0.0002, 0.0004, 73.4539, 37.964, 38.144, 0, 0, 0, 0, 
5, 0.00025, 0.00025, 0.0005, 91.8174, 47.455, 47.68, 0, 0, 0, 0, 
6, 0.0003, 0.0003, 0.0006, 110.181, 56.946, 57.216, 0, 0, 0, 0, 
7, 0.00035, 0.00035, 0.0007, 128.544, 66.437, 66.752, 0, 0, 0, 0, 
8, 0.0004, 0.0004, 0.0008, 146.908, 75.928, 76.288, 0, 0, 0, 0, 
9, 0.00045, 0.00045, 0.0009, 156.338, 80.2478, 80.8817, 0, 0, 0.0287796, 0, 
10, 0.0005, 0.0005, 0.001, 160.99, 81.8326, 82.8486, 0, 0, 0.0710772, 0, 
11, 0.00055, 0.00055, 0.0011, 164.46, 82.7749, 84.1843, 0, 0, 0.115716, 0, 
12, 0.0006, 0.0006, 0.0012, 167.186, 83.3307, 85.1328, 0, 0, 0.161759, 0, 
13, 0.00065, 0.00065, 0.0013, 169.4, 83.6338, 85.8219, 0, 0, 0.208771, 0, 
14, 0.0007, 0.0007, 0.0014, 171.246, 83.7657, 86.3302, 0, 0, 0.256492, 0, 
15, 0.00075, 0.00075, 0.0015, 172.817, 83.7796, 86.7091, 0, 0, 0.304751, 0, 
16, 0.0008, 0.0008, 0.0016, 174.181, 83.7118, 86.9941, 0, 0, 0.353421, 0, 
17, 0.00085, 0.00085, 0.0017, 175.383, 83.5875, 87.2102, 0, 0, 0.402408, 0, 
18, 0.0009, 0.0009, 0.0018, 176.46, 83.425, 87.3756, 0, 0, 0.451638, 0, 
19, 0.00095, 0.00095, 0.0019, 177.437, 83.237, 87.5035, 0, 0, 0.501052, 0, 
20, 0.001, 0.001, 0.002, 178.334, 83.0332, 87.6037, 0, 0, 0.550598, 0, 
21, 0.00105, 0.00105, 0.0021, 179.165, 82.8206, 87.6838, 0, 0, 0.600235, 0, 
22, 0.0011, 0.0011, 0.0022, 179.944, 82.6043, 87.7493, 0, 0, 0.649929, 0, 
23, 0.00115, 0.00115, 0.0023, 180.679, 82.3881, 87.8046, 0, 0, 0.699647, 0, 
24, 0.0012, 0.0012, 0.0024, 181.379, 82.1748, 87.8531, 0, 0, 0.749363, 0, 
25, 0.00125, 0.00125, 0.0025, 182.048, 81.9666, 87.8973, 0, 0, 0.799053, 0, 
26, 0.0013, 0.0013, 0.0026, 182.693, 81.765, 87.9392, 0, 0, 0.848697, 0, 
27, 0.00135, 0.00135, 0.0027, 183.317, 81.5711, 87.9805, 0, 0, 0.898276, 0, 
28, 0.0014, 0.0014, 0.0028, 183.924, 81.3856, 88.0222, 0, 0, 0.947774, 0, 
29, 0.00145, 0.00145, 0.0029, 184.516, 81.209, 88.0654, 0, 0, 0.997174, 0, 
30, 0.0015, 0.0015, 0.003, 185.096, 81.0418, 88.1108, 0, 0, 1.04646, 0, 
31, 0.00155, 0.00155, 0.0031, 185.665, 80.884, 88.159, 0, 0, 1.09563, 0, 
32, 0.0016, 0.0016, 0.0032, 186.226, 80.7358, 88.2104, 0, 0, 1.14467, 0, 
33, 0.00165, 0.00165, 0.0033, 186.78, 80.5972, 88.2653, 0, 0, 1.19356, 0, 
34, 0.0017, 0.0017, 0.0034, 187.328, 80.468, 88.324, 0, 0, 1.2423, 0, 
35, 0.00175, 0.00175, 0.0035, 187.871, 80.3482, 88.3867, 0, 0, 1.29087, 0, 
36, 0.0018, 0.0018, 0.0036, 188.41, 80.2376, 88.4534, 0, 0, 1.33928, 0, 
37, 0.00185, 0.00185, 0.0037, 188.946, 80.136, 88.5244, 0, 0, 1.38751, 0, 
38, 0.0019, 0.0019, 0.0038, 189.479, 80.0432, 88.5996, 0, 0, 1.43556, 0, 
39, 0.00195, 0.00195, 0.0039, 190.01, 79.9591, 88.679, 0, 0, 1.48341, 0, 
40, 0.002, 0.002, 0.004, 190.54, 79.8833, 88.7627, 0, 0, 1.53108, 0, 
41, 0.00205, 0.00205, 0.0041, 191.069, 79.8157, 88.8506, 0, 0, 1.57854, 0, 
42, 0.0021, 0.0021, 0.0042, 191.597, 79.756, 88.9427, 0, 0, 1.6258, 0, 
43, 0.00215, 0.00215, 0.0043, 192.125, 79.7041, 89.039, 0, 0, 1.67285, 0, 
44, 0.0022, 0.0022, 0.0044, 192.653, 79.6596, 89.1394, 0, 0, 1.71968, 0, 
45, 0.00225, 0.00225, 0.0045, 193.181, 79.6223, 89.2438, 0, 0, 1.7663, 0, 
46, 0.0023, 0.0023, 0.0046, 193.71, 79.5921, 89.3522, 0, 0, 1.8127, 0, 
47, 0.00235, 0.00235, 0.0047, 194.24, 79.5688, 89.4646, 0, 0, 1.85887, 0, 
48, 0.0024, 0.0024, 0.0048, 194.77, 79.552, 89.5808, 0, 0, 1.90482, 0, 
49, 0.00245, 0.00245, 0.0049, 195.302, 79.5417, 89.7007, 0, 0, 1.95054, 0, 
50, 0.0025, 0.0025, 0.005, 195.835, 79.5376, 89.8244, 0, 0, 1.99603, 0, 
51, 0.00255, 0.00255, 0.0051, 196.37, 79.5395, 89.9518, 0, 0, 2.04128, 0, 
52, 0.0026, 0.0026, 0.0052, 196.906, 79.5473, 90.0827, 0, 0, 2.08629, 0, 
53, 0.00265, 0.00265, 0.0053, 197.443, 79.5608, 90.2171, 0, 0, 2.13107, 0, 
54, 0.0027, 0.0027, 0.0054, 197.983, 79.5797, 90.3549, 0, 0, 2.17561, 0, 
55, 0.00275, 0.00275, 0.0055, 198.524, 79.6041, 90.4961, 0, 0, 2.2199, 0, 
56, 0.0028, 0.0028, 0.0056, 199.067, 79.6336, 90.6406, 0, 0, 2.26396, 0, 
57, 0.00285, 0.00285, 0.0057, 199.612, 79.6682, 90.7883, 0, 0, 2.30776, 0, 
58, 0.0029, 0.0029, 0.0058, 200.159, 79.7077, 90.9391, 0, 0, 2.35133, 0, 
59, 0.00295, 0.00295, 0.0059, 200.708, 79.7519, 91.0931, 0, 0, 2.39464, 0, 
60, 0.003, 0.003, 0.006, 201.259, 79.8008, 91.2501, 0, 0, 2.43771, 0, 
61, 0.00305, 0.00305, 0.0061, 201.813, 79.8541, 91.4101, 0, 0, 2.48053, 0, 
62, 0.0031, 0.0031, 0.0062, 202.368, 79.9119, 91.573, 0, 0, 2.5231, 0, 
63, 0.00315, 0.00315, 0.0063, 202.926, 79.9739, 91.7388, 0, 0, 2.56542, 0, 
64, 0.0032, 0.0032, 0.0064, 203.487, 80.04, 91.9073, 0, 0, 2.60749, 0, 
65, 0.00325, 0.00325, 0.0065, 204.049, 80.1102, 92.0787, 0, 0, 2.64931, 0, 
66, 0.0033, 0.0033, 0.0066, 204.614, 80.1843, 92.2527, 0, 0, 2.69087, 0, 
67, 0.00335, 0.00335, 0.0067, 205.181, 80.2622, 92.4293, 0, 0, 2.73219, 0, 
68, 0.0034, 0.0034, 0.0068, 205.75, 80.3438, 92.6086, 0, 0, 2.77325, 0, 
69, 0.00345, 0.00345, 0.0069, 206.103, 80.5317, 92.7011, 0.00420326, 0, 2.81406, 0, 
70, 0.0035, 0.0035, 0.007, 206.406, 80.7494, 92.7741, 0.00949752, 0, 2.85462, 0, 
71, 0.00355, 0.00355, 0.0071, 206.695, 80.9807, 92.8418, 0.0152245, 0, 2.89493, 0, 
72, 0.0036, 0.0036, 0.0072, 206.976, 81.2219, 92.9072, 0.0212474, 0, 2.93498, 0, 
73, 0.00365, 0.00365, 0.0073, 207.255, 81.4714, 92.9717, 0.0274977, 0, 2.97478, 0, 
74, 0.0037, 0.0037, 0.0074, 207.532, 81.728, 93.0361, 0.0339333, 0, 3.01433, 0, 
75, 0.00375, 0.00375, 0.0075, 207.81, 81.991, 93.1009, 0.0405256, 0, 3.05363, 0, 
76, 0.0038, 0.0038, 0.0076, 208.089, 82.2598, 93.1666, 0.0472536, 0, 3.09268, 0, 
77, 0.00385, 0.00385, 0.0077, 208.37, 82.5338, 93.2334, 0.0541012, 0, 3.13147, 0, 
78, 0.0039, 0.0039, 0.0078, 208.654, 82.8127, 93.3016, 0.0610557, 0, 3.17002, 0, 
79, 0.00395, 0.00395, 0.0079, 208.941, 83.0962, 93.3712, 0.0681067, 0, 3.20831, 0, 
80, 0.004, 0.004, 0.008, 209.231, 83.3841, 93.4424, 0.0752456, 0, 3.24635, 0, 
81, 0.00405, 0.00405, 0.0081, 209.524, 83.676, 93.5153, 0.0824651, 0, 3.28415, 0, 
82, 0.0041, 0.0041, 0.0082, 209.822, 83.9719, 93.59, 0.0897588, 0, 3.32169, 0, 
83, 0.00415, 0.00415, 0.0083, 210.123, 84.2714, 93.6664, 0.0971214, 0, 3.35899, 0, 
84, 0.0042, 0.0042, 0.0084, 210.428, 84.5745, 93.7446, 0.104548, 0, 3.39604, 0, 
85, 0.00425, 0.00425, 0.0085, 210.737, 84.8811, 93.8246, 0.112034, 0, 3.43284, 0, 
86, 0.0043, 0.0043, 0.0086, 211.05, 85.1909, 93.9066, 0.119577, 0, 3.46939, 0, 
87, 0.00435, 0.00435, 0.0087, 211.368, 85.5038, 93.9903, 0.127172, 0, 3.5057, 0, 
88, 0.0044, 0.0044, 0.0088, 211.689, 85.8198, 94.076, 0.134816, 0, 3.54176, 0, 
89, 0.00445, 0.00445, 0.0089, 212.014, 86.1388, 94.1635, 0.142507, 0, 3.57758, 0, 
90, 0.0045, 0.0045, 0.009, 212.344, 86.4606, 94.2529, 0.150243, 0, 3.61316, 0, 
91, 0.00455, 0.00455, 0.0091, 212.677, 86.7852, 94.3441, 0.158019, 0, 3.64849, 0, 
92, 0.0046, 0.0046, 0.0092, 213.015, 87.1125, 94.4372, 0.165836, 0, 3.68357, 0, 
93, 0.00465, 0.00465, 0.0093, 213.357, 87.4424, 94.5321, 0.17369, 0, 3.71842, 0, 
94, 0.0047, 0.0047, 0.0094, 213.702, 87.7748, 94.6289, 0.18158, 0, 3.75303, 0, 
95, 0.00475, 0.00475, 0.0095, 214.052, 88.1098, 94.7274, 0.189503, 0, 3.78739, 0, 
96, 0.0048, 0.0048, 0.0096, 214.405, 88.4471, 94.8278, 0.197459, 0, 3.82152, 0, 
97, 0.00485, 0.00485, 0.0097, 214.762, 88.7869, 94.9299, 0.205446, 0, 3.85541, 0, 
98, 0.0049, 0.0049, 0.0098, 215.123, 89.129, 95.0337, 0.213462, 0, 3.88906, 0, 
99, 0.00495, 0.00495, 0.0099, 215.488, 89.4733, 95.1393, 0.221506, 0, 3.92248, 0, 
100, 0.005, 0.005, 0.01, 215.856, 89.8199, 95.2466, 0.229577, 0, 3.95566, 0, 
